c This is QMaxSAT 2017 based on 14.07
c This is Glucose 3.0
c This is MiniSat 2.2.0
c WARNING: for repeatability, setting FPU to use double precision
c card = mrwto, comp = 0, pmodel = 0, narr = 4, mct = 76, verb = 0
cr firstCPXsol 0 0 0
c top = 189219
c |  Number of variables:    12482                                            |
c |  Number of clauses:      933383                                           |
c |  Weight of hard clauses: 189219                                           |
c |  Number of soft clauses: 24600                                            |
c |  Number of unit soft clauses: 0                                           |
c |  Maximum Cardinality (by unit): 813656       (0           )               |
c last restart ## conflicts  :  144 3019 
o 1374 | cpuTime 5.64585 s
c Sum of weights = 203414
c A number of soft clauses remained = 6150
c MRWTO encoding for Pseudo-Boolean Constraints
c sizeMax=1374
c No.0 Divisor=12	generated by pow1
c No.1 Divisor=12	generated by pow1
c No.2 Divisor=12	generated by pow1
c p0= 12	p1= 12	p2= 12	
c number of digits = 4
c linkingVar[0].size = 12, linkingVar[1].size = 12, linkingVar[2].size = 10, linkingVar[3].size = 1, 
c Pseudo-Boolean Constraints: 125053 variables and 1116016 clauses
c Sum of weights = 203414
c A number of soft clauses remained = 6150
c MRWTO encoding for Pseudo-Boolean Constraints
c sizeMax=1374
c No.0 Divisor=12	generated by pow1
c No.1 Divisor=12	generated by pow1
c No.2 Divisor=12	generated by pow1
c p0= 12	p1= 12	p2= 12	
c number of digits = 4
c linkingVar[0].size = 12, linkingVar[1].size = 12, linkingVar[2].size = 10, linkingVar[3].size = 1, 
c Pseudo-Boolean Constraints: 125053 variables and 1116016 clauses
c Sum of weights = 203414
c A number of soft clauses remained = 6150
c MRWTO encoding for Pseudo-Boolean Constraints
c sizeMax=1374
c No.0 Divisor=12	generated by pow1
c No.1 Divisor=12	generated by pow1
c No.2 Divisor=12	generated by pow1
c p0= 12	p1= 12	p2= 12	
c number of digits = 4
c linkingVar[0].size = 12, linkingVar[1].size = 12, linkingVar[2].size = 10, linkingVar[3].size = 1, 
c Pseudo-Boolean Constraints: 125053 variables and 1116016 clauses
c Sum of weights = 203414
c A number of soft clauses remained = 6150
c MRWTO encoding for Pseudo-Boolean Constraints
c sizeMax=1374
c No.0 Divisor=12	generated by pow1
c No.1 Divisor=12	generated by pow1
c No.2 Divisor=12	generated by pow1
c p0= 12	p1= 12	p2= 12	
c number of digits = 4
c linkingVar[0].size = 12, linkingVar[1].size = 12, linkingVar[2].size = 10, linkingVar[3].size = 1, 
c Pseudo-Boolean Constraints: 125053 variables and 1116016 clauses
c last restart ## conflicts  :  355 9527 
o 1072 | cpuTime 6.85251 s
c last restart ## conflicts  :  633 6011 
o 1069 | cpuTime 1047.93 s
c last restart ## conflicts  :  7759 8250 
o 1042 | cpuTime 1073.07 s
c last restart ## conflicts  :  1287 5001 
o 916 | cpuTime 1079.75 s
c last restart ## conflicts  :  1909 4595 
o 827 | cpuTime 1097.23 s
c last restart ## conflicts  :  4656 4319 
o 711 | cpuTime 1102.69 s
c last restart ## conflicts  :  4912 4547 
o 575 | cpuTime 1108.59 s
c last restart ## conflicts  :  2223 10068 
o 447 | cpuTime 1137.97 s
c last restart ## conflicts  :  2402 3690 
o 438 | cpuTime 2607.83 s
s UNKNOWN
c Search is stopped by a limit (maybe time-limit)
cr positiVarArr: [ | 27(1->24) | 138(1->56) | 182(1->21) | 258(1->18) | 393(2->74) | 410(3->12) | 545(4->68) | 571(5->15) | 668(6->33) | 722(7->8) | 828(8->35) | 944(9->72) | 1016(10->65) | 1083(11->53) | 1185(12->76) | 1249(13->61) | 1286(14->19) | 1383(15->37) | 1428(16->3) | 1505(17->1) | 1632(18->49) | 1669(19->7) | 1758(20->17) | 1867(21->47) | 1927(22->28) | 1994(23->16) | 2103(24->46) | 2186(25->50) | 2285(26->70) | 2356(27->62) | 2396(28->23) | 2497(29->45) | 2533(30->2) | 2630(31->20) | 2698(32->9) | 2790(33->22) | 2872(34->25) | 2978(35->52) | 3074(36->69) | 3113(37->29) | 3174(38->11) | 3317(39->75) | 3360(40->39) | 3455(41->55) | 3545(42->66) | 3621(43->63) | 3680(44->43) | 3720(45->4) | 3825(46->30) | 3879(47->5) | 4007(48->54) | 4083(49->51) | 4143(50->32) | 4234(51->44) | 4296(52->27) | 4362(53->14) | 4453(54->26) | 4570(55->64) | 4598(56->13) | 4700(57->36) | 4753(58->10) | 4853(59->31) | 4949(60->48) | 5040(61->60) | 5132(62->73) | 5180(63->42) | 5274(64->57) | 5334(65->38) | 5434(66->59) | 5488(67->34) | 5539(68->6) | 5652(69->40) | 5762(70->71) | 5770(71->1) | 5907(72->58) | 5926(73->1) | 6048(74->41) | 6085(75->1) | 6232(76->67) | ]
cr the 1-th chain: [ 1->24->46->30->2->74->41->55->64->57->36->69->40->39->75->1 ] (#non-depot=14) {#cumul.=15}
cr the 2-th chain: [ 1->56->13->61->60->48->54->26->70->71->1 ] (#non-depot=9) {#cumul.=24}
cr the 3-th chain: [ 1->21->47->5->15->37->29->45->4->68->6->33->22->28->23->16->3->12->76->67->34->25->50->32->9->72->58->10->65->38->11->53->14->19->7->8->35->52->27->62->73->1 ] (#non-depot=40) {#cumul.=64}
cr the 4-th chain: [ 1->18->49->51->44->43->63->42->66->59->31->20->17->1 ] (#non-depot=12) {#cumul.=76}
c Latest Answer = 0 by 10 loops
c restarts              : 2359
c conflicts             : 9161699        (2552 /sec)
c decisions             : 34074903       (0.00 % random) (9490 /sec)
c propagations          : 19466907685    (5421577 /sec)
c conflict literals     : 4050422591     (23.37 % deleted)
c Memory used           : 1518.00 MB
c CPU time              : 3590.64 s
